NAME : sim81.95181.tour
COMMENT : Length = 95181
COMMENT : Found by LKH [Keld Helsgaun] Sat Sep 15 02:08:44 2018
TYPE : TOUR
DIMENSION : 81
TOUR_SECTION
1
9
72
47
61
78
64
7
33
70
20
37
44
68
79
38
62
73
54
15
52
48
71
23
69
40
57
67
31
18
19
4
45
30
22
76
3
53
56
49
36
26
74
6
58
66
43
17
77
59
24
63
51
25
2
50
16
27
8
5
10
21
35
34
12
11
32
65
81
75
42
55
14
46
28
80
13
29
60
39
41
-1
EOF
